\ENCODING=ISO-8859-1
\Problem name: SVM

Minimize
 obj: 0.001 z0 + 0.001 z1 + 0.001 z2 + 0.001 z3 + 0.001 z4 + 0.001 z5
      + 0.001 z6 + 0.001 z7 + 0.001 z8 + 0.001 z9 + 0.001 z10 + 0.001 z11
      + 0.001 z12 + 0.001 z13 + 0.001 z14 + 0.001 z15 + 0.001 z16 + 0.001 z17
      + 0.001 z18 + 0.001 z19 + 0.001 z20 + 0.001 z21 + 0.001 z22 + 0.001 z23
      + 0.001 z24 + 0.001 z25 + 0.001 z26 + 0.001 z27 + 0.001 z28 + 0.001 z29
      + 0.001 z30 + 0.001 z31 + 0.001 z32 + 0.001 z33 + 0.001 z34 + 0.001 z35
      + 0.001 z36 + 0.001 z37 + 0.001 z38 + 0.001 z39 + 0.001 z40 + 0.001 z41
      + 0.001 z42 + 0.001 z43 + 0.001 z44 + 0.001 z45 + 0.001 z46 + 0.001 z47
      + 0.001 z48 + 0.001 z49 + 0.001 z50 + 0.001 z51 + 0.001 z52 + 0.001 z53
      + 0.001 z54 + 0.001 z55 + 0.001 z56 + 0.001 z57 + 0.001 z58 + 0.001 z59
      + 0.001 z60 + 0.001 z61 + 0.001 z62 + 0.001 z63 + 0.001 z64 + 0.001 z65
      + 0.001 z66 + 0.001 z67 + 0.001 z68 + 0.001 z69 + 0.001 z70 + 0.001 z71
      + 0.001 z72 + 0.001 z73 + 0.001 z74 + 0.001 z75 + 0.001 z76 + 0.001 z77
      + 0.001 z78 + 0.001 z79 + 0.001 z80 + 0.001 z81 + 0.001 z82 + 0.001 z83
      + 0.001 z84 + 0.001 z85 + 0.001 z86 + 0.001 z87 + 0.001 z88 + 0.001 z89
      + 0.001 z90 + 0.001 z91 + 0.001 z92 + 0.001 z93 + 0.001 z94 + 0.001 z95
      + 0.001 z96 + 0.001 z97 + 0.001 z98 + 0.001 z99 + 0.001 z100 + 0.001 z101
      + 0.001 z102 + 0.001 z103 + 0.001 z104 + 0.001 z105 + 0.001 z106
      + 0.001 z107 + 0.001 z108 + 0.001 z109 + 0.001 z110 + 0.001 z111
      + 0.001 z112 + 0.001 z113 + 0.001 z114 + 0.001 z115 + 0.001 z116
      + 0.001 z117 + 0.001 z118 + 0.001 z119 + 0.001 z120 + 0.001 z121
      + 0.001 z122 + 0.001 z123 + 0.001 z124 + 0.001 z125 + 0.001 z126
      + 0.001 z127 + 0.001 z128 + 0.001 z129 + 0.001 z130 + 0.001 z131
      + 0.001 z132 + 0.001 z133 + 0.001 z134 + 0.001 z135 + 0.001 z136
      + 0.001 z137 + 0.001 z138 + 0.001 z139 + 0.001 z140 + 0.001 z141
      + 0.001 z142 + 0.001 z143 + 0.001 z144 + 0.001 z145 + 0.001 z146
      + 0.001 z147 + 0.001 z148 + 0.001 z149 + 0.001 z150 + 0.001 z151
      + 0.001 z152 + 0.001 z153 + 0.001 z154 + 0.001 z155 + 0.001 z156
      + 0.001 z157 + 0.001 z158 + 0.001 z159 + 0.001 z160 + 0.001 z161
      + 0.001 z162 + 0.001 z163 + 0.001 z164 + 0.001 z165 + 0.001 z166
      + 0.001 z167 + 0.001 z168 + 0.001 z169 + 0.001 z170 + 0.001 z171
      + 0.001 z172 + 0.001 z173 + 0.001 z174 + 0.001 z175 + 0.001 z176
      + 0.001 z177 + 0.001 z178 + 0.001 z179 + 0.001 z180 + 0.001 z181
      + 0.001 z182 + 0.001 z183 + 0.001 z184 + 0.001 z185 + 0.001 z186
      + 0.001 z187 + 0.001 z188 + 0.001 z189 + 0.001 z190 + 0.001 z191
      + 0.001 z192 + 0.001 z193 + 0.001 z194 + 0.001 z195 + 0.001 z196
      + 0.001 z197 + 0.001 z198 + 0.001 z199 + 0.001 z200 + 0.001 z201
      + 0.001 z202 + 0.001 z203 + 0.001 z204 + 0.001 z205 + 0.001 z206
      + 0.001 z207 + 0.001 z208 + 0.001 z209 + 0.001 z210 + 0.001 z211
      + 0.001 z212 + 0.001 z213 + 0.001 z214 + 0.001 z215 + 0.001 z216
      + 0.001 z217 + 0.001 z218 + 0.001 z219 + 0.001 z220 + 0.001 z221
      + 0.001 z222 + 0.001 z223 + 0.001 z224 + 0.001 z225 + 0.001 z226
      + 0.001 z227 + 0.001 z228 + 0.001 z229 + 0.001 z230 + 0.001 z231
      + 0.001 z232 + 0.001 z233 + 0.001 z234 + 0.001 z235 + 0.001 z236
      + 0.001 z237 + 0.001 z238 + 0.001 z239 + 0.001 z240 + 0.001 z241
      + 0.001 z242 + 0.001 z243 + 0.001 z244 + 0.001 z245 + 0.001 z246
      + 0.001 z247 + 0.001 z248 + 0.001 z249 + 0.001 z250 + 0.001 z251
      + 0.001 z252 + 0.001 z253 + 0.001 z254 + 0.001 z255 + 0.001 z256
      + 0.001 z257 + 0.001 z258 + 0.001 z259 + 0.001 z260 + 0.001 z261
      + 0.001 z262 + 0.001 z263 + 0.001 z264 + 0.001 z265 + 0.001 z266
      + 0.001 z267 + 0.001 z268 + 0.001 z269 + 0.001 z270 + 0.001 z271
      + 0.001 z272 + 0.001 z273 + 0.001 z274 + 0.001 z275 + 0.001 z276
      + 0.001 z277 + 0.001 z278 + 0.001 z279 + 0.001 z280 + 0.001 z281
      + 0.001 z282 + 0.001 z283 + 0.001 z284 + 0.001 z285 + 0.001 z286
      + 0.001 z287 + 0.001 z288 + 0.001 z289 + 0.001 z290 + 0.001 z291
      + 0.001 z292 + 0.001 z293 + 0.001 z294 + 0.001 z295 + 0.001 z296
      + 0.001 z297 + 0.001 z298 + 0.001 z299 + 0.001 z300 + 0.001 z301
      + 0.001 z302 + 0.001 z303 + 0.001 z304 + 0.001 z305 + 0.001 z306
      + 0.001 z307 + 0.001 z308 + 0.001 z309 + 0.001 z310 + 0.001 z311
      + 0.001 z312 + 0.001 z313 + 0.001 z314 + 0.001 z315 + 0.001 z316
      + 0.001 z317 + 0.001 z318 + 0.001 z319 + 0.001 z320 + 0.001 z321
      + 0.001 z322 + 0.001 z323 + 0.001 z324 + 0.001 z325 + 0.001 z326
      + 0.001 z327 + 0.001 z328 + 0.001 z329 + 0.001 z330 + 0.001 z331
      + 0.001 z332 + 0.001 z333 + 0.001 z334 + 0.001 z335 + 0.001 z336
      + 0.001 z337 + 0.001 z338 + 0.001 z339 + 0.001 z340 + 0.001 z341
      + 0.001 z342 + 0.001 z343 + 0.001 z344 + [ w0 ^2 + w1 ^2 + w2 ^2 + w3 ^2
      + w4 ^2 + w5 ^2 ] / 2
Subject To
 c1:   85 w0 + 92 w1 + 45 w2 + 27 w3 + 31 w4 + b + 10000 z0 >= 1
 c2:   - 85 w0 - 64 w1 - 59 w2 - 32 w3 - 23 w4 - b + 10000 z1 >= 1
 c3:   - 86 w0 - 54 w1 - 33 w2 - 16 w3 - 54 w4 - b + 10000 z2 >= 1
 c4:   - 91 w0 - 78 w1 - 34 w2 - 24 w3 - 36 w4 - b + 10000 z3 >= 1
 c5:   - 87 w0 - 70 w1 - 12 w2 - 28 w3 - 10 w4 - b + 10000 z4 >= 1
 c6:   - 98 w0 - 55 w1 - 13 w2 - 17 w3 - 17 w4 - b + 10000 z5 >= 1
 c7:   88 w0 + 62 w1 + 20 w2 + 17 w3 + 9 w4 + 0.5 w5 + b + 10000 z6 >= 1
 c8:   88 w0 + 67 w1 + 21 w2 + 11 w3 + 11 w4 + 0.5 w5 + b + 10000 z7 >= 1
 c9:   92 w0 + 54 w1 + 22 w2 + 20 w3 + 7 w4 + 0.5 w5 + b + 10000 z8 >= 1
 c10:  90 w0 + 60 w1 + 25 w2 + 19 w3 + 5 w4 + 0.5 w5 + b + 10000 z9 >= 1
 c11:  89 w0 + 52 w1 + 13 w2 + 24 w3 + 15 w4 + 0.5 w5 + b + 10000 z10 >= 1
 c12:  82 w0 + 62 w1 + 17 w2 + 17 w3 + 15 w4 + 0.5 w5 + b + 10000 z11 >= 1
 c13:  90 w0 + 64 w1 + 61 w2 + 32 w3 + 13 w4 + 0.5 w5 + b + 10000 z12 >= 1
 c14:  86 w0 + 77 w1 + 25 w2 + 19 w3 + 18 w4 + 0.5 w5 + b + 10000 z13 >= 1
 c15:  96 w0 + 67 w1 + 29 w2 + 20 w3 + 11 w4 + 0.5 w5 + b + 10000 z14 >= 1
 c16:  91 w0 + 78 w1 + 20 w2 + 31 w3 + 18 w4 + 0.5 w5 + b + 10000 z15 >= 1
 c17:  89 w0 + 67 w1 + 23 w2 + 16 w3 + 10 w4 + 0.5 w5 + b + 10000 z16 >= 1
 c18:  89 w0 + 79 w1 + 17 w2 + 17 w3 + 16 w4 + 0.5 w5 + b + 10000 z17 >= 1
 c19:  91 w0 + 107 w1 + 20 w2 + 20 w3 + 56 w4 + 0.5 w5 + b + 10000 z18 >= 1
 c20:  94 w0 + 116 w1 + 11 w2 + 33 w3 + 11 w4 + 0.5 w5 + b + 10000 z19 >= 1
 c21:  92 w0 + 59 w1 + 35 w2 + 13 w3 + 19 w4 + 0.5 w5 + b + 10000 z20 >= 1
 c22:  93 w0 + 23 w1 + 35 w2 + 20 w3 + 20 w4 + 0.5 w5 + b + 10000 z21 >= 1
 c23:  90 w0 + 60 w1 + 23 w2 + 27 w3 + 5 w4 + 0.5 w5 + b + 10000 z22 >= 1
 c24:  96 w0 + 68 w1 + 18 w2 + 19 w3 + 19 w4 + 0.5 w5 + b + 10000 z23 >= 1
 c25:  84 w0 + 80 w1 + 47 w2 + 33 w3 + 97 w4 + 0.5 w5 + b + 10000 z24 >= 1
 c26:  92 w0 + 70 w1 + 24 w2 + 13 w3 + 26 w4 + 0.5 w5 + b + 10000 z25 >= 1
 c27:  90 w0 + 47 w1 + 28 w2 + 15 w3 + 18 w4 + 0.5 w5 + b + 10000 z26 >= 1
 c28:  88 w0 + 66 w1 + 20 w2 + 21 w3 + 10 w4 + 0.5 w5 + b + 10000 z27 >= 1
 c29:  91 w0 + 102 w1 + 17 w2 + 13 w3 + 19 w4 + 0.5 w5 + b + 10000 z28 >= 1
 c30:  87 w0 + 41 w1 + 31 w2 + 19 w3 + 16 w4 + 0.5 w5 + b + 10000 z29 >= 1
 c31:  86 w0 + 79 w1 + 28 w2 + 16 w3 + 17 w4 + 0.5 w5 + b + 10000 z30 >= 1
 c32:  91 w0 + 57 w1 + 31 w2 + 23 w3 + 42 w4 + 0.5 w5 + b + 10000 z31 >= 1
 c33:  93 w0 + 77 w1 + 32 w2 + 18 w3 + 29 w4 + 0.5 w5 + b + 10000 z32 >= 1
 c34:  88 w0 + 96 w1 + 28 w2 + 21 w3 + 40 w4 + 0.5 w5 + b + 10000 z33 >= 1
 c35:  94 w0 + 65 w1 + 22 w2 + 18 w3 + 11 w4 + 0.5 w5 + b + 10000 z34 >= 1
 c36:  - 91 w0 - 72 w1 - 155 w2 - 68 w3 - 82 w4 - 0.5 w5 - b + 10000 z35 >= 1
 c37:  - 85 w0 - 54 w1 - 47 w2 - 33 w3 - 22 w4 - 0.5 w5 - b + 10000 z36 >= 1
 c38:  - 79 w0 - 39 w1 - 14 w2 - 19 w3 - 9 w4 - 0.5 w5 - b + 10000 z37 >= 1
 c39:  - 85 w0 - 85 w1 - 25 w2 - 26 w3 - 30 w4 - 0.5 w5 - b + 10000 z38 >= 1
 c40:  - 89 w0 - 63 w1 - 24 w2 - 20 w3 - 38 w4 - 0.5 w5 - b + 10000 z39 >= 1
 c41:  - 84 w0 - 92 w1 - 68 w2 - 37 w3 - 44 w4 - 0.5 w5 - b + 10000 z40 >= 1
 c42:  - 89 w0 - 68 w1 - 26 w2 - 39 w3 - 42 w4 - 0.5 w5 - b + 10000 z41 >= 1
 c43:  - 89 w0 - 101 w1 - 18 w2 - 25 w3 - 13 w4 - 0.5 w5 - b + 10000 z42 >= 1
 c44:  - 86 w0 - 84 w1 - 18 w2 - 14 w3 - 16 w4 - 0.5 w5 - b + 10000 z43 >= 1
 c45:  - 85 w0 - 65 w1 - 25 w2 - 14 w3 - 18 w4 - 0.5 w5 - b + 10000 z44 >= 1
 c46:  - 88 w0 - 61 w1 - 19 w2 - 21 w3 - 13 w4 - 0.5 w5 - b + 10000 z45 >= 1
 c47:  - 92 w0 - 56 w1 - 14 w2 - 16 w3 - 10 w4 - 0.5 w5 - b + 10000 z46 >= 1
 c48:  - 95 w0 - 50 w1 - 29 w2 - 25 w3 - 50 w4 - 0.5 w5 - b + 10000 z47 >= 1
 c49:  - 91 w0 - 75 w1 - 24 w2 - 22 w3 - 11 w4 - 0.5 w5 - b + 10000 z48 >= 1
 c50:  - 83 w0 - 40 w1 - 29 w2 - 25 w3 - 38 w4 - 0.5 w5 - b + 10000 z49 >= 1
 c51:  - 89 w0 - 74 w1 - 19 w2 - 23 w3 - 16 w4 - 0.5 w5 - b + 10000 z50 >= 1
 c52:  - 85 w0 - 64 w1 - 24 w2 - 22 w3 - 11 w4 - 0.5 w5 - b + 10000 z51 >= 1
 c53:  - 92 w0 - 57 w1 - 64 w2 - 36 w3 - 90 w4 - 0.5 w5 - b + 10000 z52 >= 1
 c54:  - 94 w0 - 48 w1 - 11 w2 - 23 w3 - 43 w4 - 0.5 w5 - b + 10000 z53 >= 1
 c55:  - 87 w0 - 52 w1 - 21 w2 - 19 w3 - 30 w4 - 0.5 w5 - b + 10000 z54 >= 1
 c56:  - 85 w0 - 65 w1 - 23 w2 - 29 w3 - 15 w4 - 0.5 w5 - b + 10000 z55 >= 1
 c57:  - 84 w0 - 82 w1 - 21 w2 - 21 w3 - 19 w4 - 0.5 w5 - b + 10000 z56 >= 1
 c58:  - 88 w0 - 49 w1 - 20 w2 - 22 w3 - 19 w4 - 0.5 w5 - b + 10000 z57 >= 1
 c59:  - 96 w0 - 67 w1 - 26 w2 - 26 w3 - 36 w4 - 0.5 w5 - b + 10000 z58 >= 1
 c60:  - 90 w0 - 63 w1 - 24 w2 - 24 w3 - 24 w4 - 0.5 w5 - b + 10000 z59 >= 1
 c61:  - 90 w0 - 45 w1 - 33 w2 - 34 w3 - 27 w4 - 0.5 w5 - b + 10000 z60 >= 1
 c62:  - 90 w0 - 72 w1 - 14 w2 - 15 w3 - 18 w4 - 0.5 w5 - b + 10000 z61 >= 1
 c63:  - 91 w0 - 55 w1 - 4 w2 - 8 w3 - 13 w4 - 0.5 w5 - b + 10000 z62 >= 1
 c64:  - 91 w0 - 52 w1 - 15 w2 - 22 w3 - 11 w4 - 0.5 w5 - b + 10000 z63 >= 1
 c65:  87 w0 + 71 w1 + 32 w2 + 19 w3 + 27 w4 + w5 + b + 10000 z64 >= 1
 c66:  89 w0 + 77 w1 + 26 w2 + 20 w3 + 19 w4 + w5 + b + 10000 z65 >= 1
 c67:  - 89 w0 - 67 w1 - 5 w2 - 17 w3 - 14 w4 - w5 - b + 10000 z66 >= 1
 c68:  - 85 w0 - 51 w1 - 26 w2 - 24 w3 - 23 w4 - w5 - b + 10000 z67 >= 1
 c69:  - 103 w0 - 75 w1 - 19 w2 - 30 w3 - 13 w4 - w5 - b + 10000 z68 >= 1
 c70:  - 90 w0 - 63 w1 - 16 w2 - 21 w3 - 14 w4 - w5 - b + 10000 z69 >= 1
 c71:  90 w0 + 63 w1 + 29 w2 + 23 w3 + 57 w4 + 2 w5 + b + 10000 z70 >= 1
 c72:  90 w0 + 67 w1 + 35 w2 + 19 w3 + 35 w4 + 2 w5 + b + 10000 z71 >= 1
 c73:  87 w0 + 66 w1 + 27 w2 + 22 w3 + 9 w4 + 2 w5 + b + 10000 z72 >= 1
 c74:  90 w0 + 73 w1 + 34 w2 + 21 w3 + 22 w4 + 2 w5 + b + 10000 z73 >= 1
 c75:  86 w0 + 54 w1 + 20 w2 + 21 w3 + 16 w4 + 2 w5 + b + 10000 z74 >= 1
 c76:  90 w0 + 80 w1 + 19 w2 + 14 w3 + 42 w4 + 2 w5 + b + 10000 z75 >= 1
 c77:  - 87 w0 - 90 w1 - 43 w2 - 28 w3 - 156 w4 - 2 w5 - b + 10000 z76 >= 1
 c78:  - 96 w0 - 72 w1 - 28 w2 - 19 w3 - 30 w4 - 2 w5 - b + 10000 z77 >= 1
 c79:  - 91 w0 - 55 w1 - 9 w2 - 25 w3 - 16 w4 - 2 w5 - b + 10000 z78 >= 1
 c80:  - 95 w0 - 78 w1 - 27 w2 - 25 w3 - 30 w4 - 2 w5 - b + 10000 z79 >= 1
 c81:  - 92 w0 - 101 w1 - 34 w2 - 30 w3 - 64 w4 - 2 w5 - b + 10000 z80 >= 1
 c82:  - 89 w0 - 51 w1 - 41 w2 - 22 w3 - 48 w4 - 2 w5 - b + 10000 z81 >= 1
 c83:  - 91 w0 - 99 w1 - 42 w2 - 33 w3 - 16 w4 - 2 w5 - b + 10000 z82 >= 1
 c84:  - 94 w0 - 58 w1 - 21 w2 - 18 w3 - 26 w4 - 2 w5 - b + 10000 z83 >= 1
 c85:  - 92 w0 - 60 w1 - 30 w2 - 27 w3 - 297 w4 - 2 w5 - b + 10000 z84 >= 1
 c86:  - 94 w0 - 58 w1 - 21 w2 - 18 w3 - 26 w4 - 2 w5 - b + 10000 z85 >= 1
 c87:  - 88 w0 - 47 w1 - 33 w2 - 26 w3 - 29 w4 - 2 w5 - b + 10000 z86 >= 1
 c88:  - 92 w0 - 65 w1 - 17 w2 - 25 w3 - 9 w4 - 2 w5 - b + 10000 z87 >= 1
 c89:  92 w0 + 79 w1 + 22 w2 + 20 w3 + 11 w4 + 3 w5 + b + 10000 z88 >= 1
 c90:  84 w0 + 83 w1 + 20 w2 + 25 w3 + 7 w4 + 3 w5 + b + 10000 z89 >= 1
 c91:  88 w0 + 68 w1 + 27 w2 + 21 w3 + 26 w4 + 3 w5 + b + 10000 z90 >= 1
 c92:  86 w0 + 48 w1 + 20 w2 + 20 w3 + 6 w4 + 3 w5 + b + 10000 z91 >= 1
 c93:  99 w0 + 69 w1 + 45 w2 + 32 w3 + 30 w4 + 3 w5 + b + 10000 z92 >= 1
 c94:  88 w0 + 66 w1 + 23 w2 + 12 w3 + 15 w4 + 3 w5 + b + 10000 z93 >= 1
 c95:  89 w0 + 62 w1 + 42 w2 + 30 w3 + 20 w4 + 3 w5 + b + 10000 z94 >= 1
 c96:  90 w0 + 51 w1 + 23 w2 + 17 w3 + 27 w4 + 3 w5 + b + 10000 z95 >= 1
 c97:  - 81 w0 - 61 w1 - 32 w2 - 37 w3 - 53 w4 - 3 w5 - b + 10000 z96 >= 1
 c98:  - 89 w0 - 89 w1 - 23 w2 - 18 w3 - 104 w4 - 3 w5 - b + 10000 z97 >= 1
 c99:  - 89 w0 - 65 w1 - 26 w2 - 18 w3 - 36 w4 - 3 w5 - b + 10000 z98 >= 1
 c100: - 92 w0 - 75 w1 - 26 w2 - 26 w3 - 24 w4 - 3 w5 - b + 10000 z99 >= 1
 c101: - 85 w0 - 59 w1 - 25 w2 - 20 w3 - 25 w4 - 3 w5 - b + 10000 z100 >= 1
 c102: - 92 w0 - 61 w1 - 18 w2 - 13 w3 - 81 w4 - 3 w5 - b + 10000 z101 >= 1
 c103: 89 w0 + 63 w1 + 22 w2 + 27 w3 + 10 w4 + 4 w5 + b + 10000 z102 >= 1
 c104: 90 w0 + 84 w1 + 18 w2 + 23 w3 + 13 w4 + 4 w5 + b + 10000 z103 >= 1
 c105: 88 w0 + 95 w1 + 25 w2 + 19 w3 + 14 w4 + 4 w5 + b + 10000 z104 >= 1
 c106: 89 w0 + 35 w1 + 27 w2 + 29 w3 + 17 w4 + 4 w5 + b + 10000 z105 >= 1
 c107: 91 w0 + 80 w1 + 37 w2 + 23 w3 + 27 w4 + 4 w5 + b + 10000 z106 >= 1
 c108: 91 w0 + 109 w1 + 33 w2 + 15 w3 + 18 w4 + 4 w5 + b + 10000 z107 >= 1
 c109: 91 w0 + 65 w1 + 17 w2 + 5 w3 + 7 w4 + 4 w5 + b + 10000 z108 >= 1
 c110: - 88 w0 - 107 w1 - 29 w2 - 20 w3 - 50 w4 - 4 w5 - b + 10000 z109 >= 1
 c111: - 87 w0 - 76 w1 - 22 w2 - 55 w3 - 9 w4 - 4 w5 - b + 10000 z110 >= 1
 c112: - 87 w0 - 86 w1 - 28 w2 - 23 w3 - 21 w4 - 4 w5 - b + 10000 z111 >= 1
 c113: - 87 w0 - 42 w1 - 26 w2 - 23 w3 - 17 w4 - 4 w5 - b + 10000 z112 >= 1
 c114: - 88 w0 - 80 w1 - 24 w2 - 25 w3 - 17 w4 - 4 w5 - b + 10000 z113 >= 1
 c115: - 90 w0 - 96 w1 - 34 w2 - 49 w3 - 169 w4 - 4 w5 - b + 10000 z114 >= 1
 c116: - 86 w0 - 67 w1 - 11 w2 - 15 w3 - 8 w4 - 4 w5 - b + 10000 z115 >= 1
 c117: - 92 w0 - 40 w1 - 19 w2 - 20 w3 - 21 w4 - 4 w5 - b + 10000 z116 >= 1
 c118: - 85 w0 - 60 w1 - 17 w2 - 21 w3 - 14 w4 - 4 w5 - b + 10000 z117 >= 1
 c119: - 89 w0 - 90 w1 - 15 w2 - 17 w3 - 25 w4 - 4 w5 - b + 10000 z118 >= 1
 c120: - 91 w0 - 57 w1 - 15 w2 - 16 w3 - 16 w4 - 4 w5 - b + 10000 z119 >= 1
 c121: - 96 w0 - 55 w1 - 48 w2 - 39 w3 - 42 w4 - 4 w5 - b + 10000 z120 >= 1
 c122: - 79 w0 - 101 w1 - 17 w2 - 27 w3 - 23 w4 - 4 w5 - b + 10000 z121 >= 1
 c123: - 90 w0 - 134 w1 - 14 w2 - 20 w3 - 14 w4 - 4 w5 - b + 10000 z122 >= 1
 c124: - 89 w0 - 76 w1 - 14 w2 - 21 w3 - 24 w4 - 4 w5 - b + 10000 z123 >= 1
 c125: - 88 w0 - 93 w1 - 29 w2 - 27 w3 - 31 w4 - 4 w5 - b + 10000 z124 >= 1
 c126: - 90 w0 - 67 w1 - 10 w2 - 16 w3 - 16 w4 - 4 w5 - b + 10000 z125 >= 1
 c127: - 92 w0 - 73 w1 - 24 w2 - 21 w3 - 48 w4 - 4 w5 - b + 10000 z126 >= 1
 c128: - 91 w0 - 55 w1 - 28 w2 - 28 w3 - 82 w4 - 4 w5 - b + 10000 z127 >= 1
 c129: - 83 w0 - 45 w1 - 19 w2 - 21 w3 - 13 w4 - 4 w5 - b + 10000 z128 >= 1
 c130: - 90 w0 - 74 w1 - 19 w2 - 14 w3 - 22 w4 - 4 w5 - b + 10000 z129 >= 1
 c131: 92 w0 + 66 w1 + 21 w2 + 16 w3 + 33 w4 + 5 w5 + b + 10000 z130 >= 1
 c132: 93 w0 + 63 w1 + 26 w2 + 18 w3 + 18 w4 + 5 w5 + b + 10000 z131 >= 1
 c133: - 86 w0 - 78 w1 - 47 w2 - 39 w3 - 107 w4 - 5 w5 - b + 10000 z132 >= 1
 c134: - 97 w0 - 44 w1 - 113 w2 - 45 w3 - 150 w4 - 5 w5 - b + 10000 z133 >= 1
 c135: - 87 w0 - 59 w1 - 15 w2 - 19 w3 - 12 w4 - 5 w5 - b + 10000 z134 >= 1
 c136: - 86 w0 - 44 w1 - 21 w2 - 11 w3 - 15 w4 - 5 w5 - b + 10000 z135 >= 1
 c137: - 87 w0 - 64 w1 - 16 w2 - 20 w3 - 24 w4 - 5 w5 - b + 10000 z136 >= 1
 c138: - 92 w0 - 57 w1 - 21 w2 - 23 w3 - 22 w4 - 5 w5 - b + 10000 z137 >= 1
 c139: - 90 w0 - 70 w1 - 25 w2 - 23 w3 - 112 w4 - 5 w5 - b + 10000 z138 >= 1
 c140: - 99 w0 - 59 w1 - 17 w2 - 19 w3 - 11 w4 - 5 w5 - b + 10000 z139 >= 1
 c141: 92 w0 + 80 w1 + 10 w2 + 26 w3 + 20 w4 + 6 w5 + b + 10000 z140 >= 1
 c142: 95 w0 + 60 w1 + 26 w2 + 22 w3 + 28 w4 + 6 w5 + b + 10000 z141 >= 1
 c143: 91 w0 + 63 w1 + 25 w2 + 26 w3 + 15 w4 + 6 w5 + b + 10000 z142 >= 1
 c144: 92 w0 + 62 w1 + 37 w2 + 21 w3 + 36 w4 + 6 w5 + b + 10000 z143 >= 1
 c145: 95 w0 + 50 w1 + 13 w2 + 14 w3 + 15 w4 + 6 w5 + b + 10000 z144 >= 1
 c146: 90 w0 + 76 w1 + 37 w2 + 19 w3 + 50 w4 + 6 w5 + b + 10000 z145 >= 1
 c147: 96 w0 + 70 w1 + 70 w2 + 26 w3 + 36 w4 + 6 w5 + b + 10000 z146 >= 1
 c148: 95 w0 + 62 w1 + 64 w2 + 42 w3 + 76 w4 + 6 w5 + b + 10000 z147 >= 1
 c149: 92 w0 + 62 w1 + 20 w2 + 23 w3 + 20 w4 + 6 w5 + b + 10000 z148 >= 1
 c150: 91 w0 + 63 w1 + 25 w2 + 26 w3 + 15 w4 + 6 w5 + b + 10000 z149 >= 1
 c151: - 82 w0 - 56 w1 - 67 w2 - 38 w3 - 92 w4 - 6 w5 - b + 10000 z150 >= 1
 c152: - 92 w0 - 82 w1 - 27 w2 - 24 w3 - 37 w4 - 6 w5 - b + 10000 z151 >= 1
 c153: - 90 w0 - 63 w1 - 12 w2 - 26 w3 - 21 w4 - 6 w5 - b + 10000 z152 >= 1
 c154: - 88 w0 - 37 w1 - 9 w2 - 15 w3 - 16 w4 - 6 w5 - b + 10000 z153 >= 1
 c155: - 100 w0 - 60 w1 - 29 w2 - 23 w3 - 76 w4 - 6 w5 - b + 10000 z154 >= 1
 c156: - 98 w0 - 43 w1 - 35 w2 - 23 w3 - 69 w4 - 6 w5 - b + 10000 z155 >= 1
 c157: - 91 w0 - 74 w1 - 87 w2 - 50 w3 - 67 w4 - 6 w5 - b + 10000 z156 >= 1
 c158: - 92 w0 - 87 w1 - 57 w2 - 25 w3 - 44 w4 - 6 w5 - b + 10000 z157 >= 1
 c159: - 93 w0 - 99 w1 - 36 w2 - 34 w3 - 48 w4 - 6 w5 - b + 10000 z158 >= 1
 c160: - 90 w0 - 72 w1 - 17 w2 - 19 w3 - 19 w4 - 6 w5 - b + 10000 z159 >= 1
 c161: - 97 w0 - 93 w1 - 21 w2 - 20 w3 - 68 w4 - 6 w5 - b + 10000 z160 >= 1
 c162: - 93 w0 - 50 w1 - 18 w2 - 25 w3 - 17 w4 - 6 w5 - b + 10000 z161 >= 1
 c163: - 90 w0 - 57 w1 - 20 w2 - 26 w3 - 33 w4 - 6 w5 - b + 10000 z162 >= 1
 c164: - 92 w0 - 76 w1 - 31 w2 - 28 w3 - 41 w4 - 6 w5 - b + 10000 z163 >= 1
 c165: - 88 w0 - 55 w1 - 19 w2 - 17 w3 - 14 w4 - 6 w5 - b + 10000 z164 >= 1
 c166: - 89 w0 - 63 w1 - 24 w2 - 29 w3 - 29 w4 - 6 w5 - b + 10000 z165 >= 1
 c167: 92 w0 + 79 w1 + 70 w2 + 32 w3 + 84 w4 + 7 w5 + b + 10000 z166 >= 1
 c168: 92 w0 + 93 w1 + 58 w2 + 35 w3 + 120 w4 + 7 w5 + b + 10000 z167 >= 1
 c169: - 93 w0 - 84 w1 - 58 w2 - 47 w3 - 62 w4 - 7 w5 - b + 10000 z168 >= 1
 c170: 97 w0 + 71 w1 + 29 w2 + 22 w3 + 52 w4 + 8 w5 + b + 10000 z169 >= 1
 c171: 84 w0 + 99 w1 + 33 w2 + 19 w3 + 26 w4 + 8 w5 + b + 10000 z170 >= 1
 c172: 96 w0 + 44 w1 + 42 w2 + 23 w3 + 73 w4 + 8 w5 + b + 10000 z171 >= 1
 c173: 90 w0 + 62 w1 + 22 w2 + 21 w3 + 21 w4 + 8 w5 + b + 10000 z172 >= 1
 c174: 92 w0 + 94 w1 + 18 w2 + 17 w3 + 6 w4 + 8 w5 + b + 10000 z173 >= 1
 c175: 90 w0 + 67 w1 + 77 w2 + 39 w3 + 114 w4 + 8 w5 + b + 10000 z174 >= 1
 c176: 97 w0 + 71 w1 + 29 w2 + 22 w3 + 52 w4 + 8 w5 + b + 10000 z175 >= 1
 c177: - 91 w0 - 69 w1 - 25 w2 - 25 w3 - 66 w4 - 8 w5 - b + 10000 z176 >= 1
 c178: - 93 w0 - 59 w1 - 17 w2 - 20 w3 - 14 w4 - 8 w5 - b + 10000 z177 >= 1
 c179: - 92 w0 - 95 w1 - 85 w2 - 48 w3 - 200 w4 - 8 w5 - b + 10000 z178 >= 1
 c180: - 90 w0 - 50 w1 - 26 w2 - 22 w3 - 53 w4 - 8 w5 - b + 10000 z179 >= 1
 c181: - 91 w0 - 62 w1 - 59 w2 - 47 w3 - 60 w4 - 8 w5 - b + 10000 z180 >= 1
 c182: 92 w0 + 93 w1 + 22 w2 + 28 w3 + 123 w4 + 9 w5 + b + 10000 z181 >= 1
 c183: 92 w0 + 77 w1 + 86 w2 + 41 w3 + 31 w4 + 10 w5 + b + 10000 z182 >= 1
 c184: - 86 w0 - 66 w1 - 22 w2 - 24 w3 - 26 w4 - 10 w5 - b + 10000 z183 >= 1
 c185: - 98 w0 - 57 w1 - 31 w2 - 34 w3 - 73 w4 - 10 w5 - b + 10000 z184 >= 1
 c186: - 95 w0 - 80 w1 - 50 w2 - 64 w3 - 55 w4 - 10 w5 - b + 10000 z185 >= 1
 c187: - 92 w0 - 108 w1 - 53 w2 - 33 w3 - 94 w4 - 12 w5 - b + 10000 z186 >= 1
 c188: - 97 w0 - 92 w1 - 22 w2 - 28 w3 - 49 w4 - 12 w5 - b + 10000 z187 >= 1
 c189: 93 w0 + 77 w1 + 39 w2 + 37 w3 + 108 w4 + 16 w5 + b + 10000 z188 >= 1
 c190: 94 w0 + 83 w1 + 81 w2 + 34 w3 + 201 w4 + 20 w5 + b + 10000 z189 >= 1
 c191: 87 w0 + 75 w1 + 25 w2 + 21 w3 + 14 w4 + b + 10000 z190 >= 1
 c192: 88 w0 + 56 w1 + 23 w2 + 18 w3 + 12 w4 + b + 10000 z191 >= 1
 c193: - 84 w0 - 97 w1 - 41 w2 - 20 w3 - 32 w4 - b + 10000 z192 >= 1
 c194: 94 w0 + 91 w1 + 27 w2 + 20 w3 + 15 w4 + 0.5 w5 + b + 10000 z193 >= 1
 c195: 97 w0 + 62 w1 + 17 w2 + 13 w3 + 5 w4 + 0.5 w5 + b + 10000 z194 >= 1
 c196: 92 w0 + 85 w1 + 25 w2 + 20 w3 + 12 w4 + 0.5 w5 + b + 10000 z195 >= 1
 c197: 82 w0 + 48 w1 + 27 w2 + 15 w3 + 12 w4 + 0.5 w5 + b + 10000 z196 >= 1
 c198: 88 w0 + 74 w1 + 31 w2 + 25 w3 + 15 w4 + 0.5 w5 + b + 10000 z197 >= 1
 c199: 95 w0 + 77 w1 + 30 w2 + 14 w3 + 21 w4 + 0.5 w5 + b + 10000 z198 >= 1
 c200: 88 w0 + 94 w1 + 26 w2 + 18 w3 + 8 w4 + 0.5 w5 + b + 10000 z199 >= 1
 c201: 91 w0 + 70 w1 + 19 w2 + 19 w3 + 22 w4 + 0.5 w5 + b + 10000 z200 >= 1
 c202: 83 w0 + 54 w1 + 27 w2 + 15 w3 + 12 w4 + 0.5 w5 + b + 10000 z201 >= 1
 c203: 91 w0 + 105 w1 + 40 w2 + 26 w3 + 56 w4 + 0.5 w5 + b + 10000 z202 >= 1
 c204: 86 w0 + 79 w1 + 37 w2 + 28 w3 + 14 w4 + 0.5 w5 + b + 10000 z203 >= 1
 c205: 91 w0 + 96 w1 + 35 w2 + 22 w3 + 135 w4 + 0.5 w5 + b + 10000 z204 >= 1
 c206: 89 w0 + 82 w1 + 23 w2 + 14 w3 + 35 w4 + 0.5 w5 + b + 10000 z205 >= 1
 c207: 90 w0 + 73 w1 + 24 w2 + 23 w3 + 11 w4 + 0.5 w5 + b + 10000 z206 >= 1
 c208: 90 w0 + 87 w1 + 19 w2 + 25 w3 + 19 w4 + 0.5 w5 + b + 10000 z207 >= 1
 c209: 89 w0 + 82 w1 + 33 w2 + 32 w3 + 18 w4 + 0.5 w5 + b + 10000 z208 >= 1
 c210: 85 w0 + 79 w1 + 17 w2 + 8 w3 + 9 w4 + 0.5 w5 + b + 10000 z209 >= 1
 c211: 85 w0 + 119 w1 + 30 w2 + 26 w3 + 17 w4 + 0.5 w5 + b + 10000 z210 >= 1
 c212: 78 w0 + 69 w1 + 24 w2 + 18 w3 + 31 w4 + 0.5 w5 + b + 10000 z211 >= 1
 c213: 88 w0 + 107 w1 + 34 w2 + 21 w3 + 27 w4 + 0.5 w5 + b + 10000 z212 >= 1
 c214: 89 w0 + 115 w1 + 17 w2 + 27 w3 + 7 w4 + 0.5 w5 + b + 10000 z213 >= 1
 c215: 92 w0 + 67 w1 + 23 w2 + 15 w3 + 12 w4 + 0.5 w5 + b + 10000 z214 >= 1
 c216: 89 w0 + 101 w1 + 27 w2 + 34 w3 + 14 w4 + 0.5 w5 + b + 10000 z215 >= 1
 c217: 91 w0 + 84 w1 + 11 w2 + 12 w3 + 10 w4 + 0.5 w5 + b + 10000 z216 >= 1
 c218: - 94 w0 - 101 w1 - 41 w2 - 20 w3 - 53 w4 - 0.5 w5 - b + 10000 z217 >= 1
 c219: - 88 w0 - 46 w1 - 29 w2 - 22 w3 - 18 w4 - 0.5 w5 - b + 10000 z218 >= 1
 c220: - 88 w0 - 122 w1 - 35 w2 - 29 w3 - 42 w4 - 0.5 w5 - b + 10000 z219 >= 1
 c221: - 84 w0 - 88 w1 - 28 w2 - 25 w3 - 35 w4 - 0.5 w5 - b + 10000 z220 >= 1
 c222: - 90 w0 - 79 w1 - 18 w2 - 15 w3 - 24 w4 - 0.5 w5 - b + 10000 z221 >= 1
 c223: - 87 w0 - 69 w1 - 22 w2 - 26 w3 - 11 w4 - 0.5 w5 - b + 10000 z222 >= 1
 c224: - 65 w0 - 63 w1 - 19 w2 - 20 w3 - 14 w4 - 0.5 w5 - b + 10000 z223 >= 1
 c225: - 90 w0 - 64 w1 - 12 w2 - 17 w3 - 14 w4 - 0.5 w5 - b + 10000 z224 >= 1
 c226: - 85 w0 - 58 w1 - 18 w2 - 24 w3 - 16 w4 - 0.5 w5 - b + 10000 z225 >= 1
 c227: - 88 w0 - 81 w1 - 41 w2 - 27 w3 - 36 w4 - 0.5 w5 - b + 10000 z226 >= 1
 c228: - 86 w0 - 78 w1 - 52 w2 - 29 w3 - 62 w4 - 0.5 w5 - b + 10000 z227 >= 1
 c229: - 82 w0 - 74 w1 - 38 w2 - 28 w3 - 48 w4 - 0.5 w5 - b + 10000 z228 >= 1
 c230: - 86 w0 - 58 w1 - 36 w2 - 27 w3 - 59 w4 - 0.5 w5 - b + 10000 z229 >= 1
 c231: - 94 w0 - 56 w1 - 30 w2 - 18 w3 - 27 w4 - 0.5 w5 - b + 10000 z230 >= 1
 c232: - 87 w0 - 57 w1 - 30 w2 - 30 w3 - 22 w4 - 0.5 w5 - b + 10000 z231 >= 1
 c233: - 98 w0 - 74 w1 - 148 w2 - 75 w3 - 159 w4 - 0.5 w5 - b + 10000 z232 >= 1
 c234: - 94 w0 - 75 w1 - 20 w2 - 25 w3 - 38 w4 - 0.5 w5 - b + 10000 z233 >= 1
 c235: - 83 w0 - 68 w1 - 17 w2 - 20 w3 - 71 w4 - 0.5 w5 - b + 10000 z234 >= 1
 c236: - 93 w0 - 56 w1 - 25 w2 - 21 w3 - 33 w4 - 0.5 w5 - b + 10000 z235 >= 1
 c237: - 101 w0 - 65 w1 - 18 w2 - 21 w3 - 22 w4 - 0.5 w5 - b + 10000 z236 >= 1
 c238: - 92 w0 - 65 w1 - 25 w2 - 20 w3 - 31 w4 - 0.5 w5 - b + 10000 z237 >= 1
 c239: - 92 w0 - 58 w1 - 14 w2 - 16 w3 - 13 w4 - 0.5 w5 - b + 10000 z238 >= 1
 c240: - 86 w0 - 58 w1 - 16 w2 - 23 w3 - 23 w4 - 0.5 w5 - b + 10000 z239 >= 1
 c241: - 85 w0 - 62 w1 - 15 w2 - 13 w3 - 22 w4 - 0.5 w5 - b + 10000 z240 >= 1
 c242: - 86 w0 - 57 w1 - 13 w2 - 20 w3 - 13 w4 - 0.5 w5 - b + 10000 z241 >= 1
 c243: - 86 w0 - 54 w1 - 26 w2 - 30 w3 - 13 w4 - 0.5 w5 - b + 10000 z242 >= 1
 c244: 81 w0 + 41 w1 + 33 w2 + 27 w3 + 34 w4 + w5 + b + 10000 z243 >= 1
 c245: 91 w0 + 67 w1 + 32 w2 + 26 w3 + 13 w4 + w5 + b + 10000 z244 >= 1
 c246: 91 w0 + 80 w1 + 21 w2 + 19 w3 + 14 w4 + w5 + b + 10000 z245 >= 1
 c247: 92 w0 + 60 w1 + 23 w2 + 15 w3 + 19 w4 + w5 + b + 10000 z246 >= 1
 c248: 91 w0 + 60 w1 + 32 w2 + 14 w3 + 8 w4 + w5 + b + 10000 z247 >= 1
 c249: 93 w0 + 65 w1 + 28 w2 + 22 w3 + 10 w4 + w5 + b + 10000 z248 >= 1
 c250: - 90 w0 - 63 w1 - 45 w2 - 24 w3 - 85 w4 - w5 - b + 10000 z249 >= 1
 c251: - 87 w0 - 92 w1 - 21 w2 - 22 w3 - 37 w4 - w5 - b + 10000 z250 >= 1
 c252: - 83 w0 - 78 w1 - 31 w2 - 19 w3 - 115 w4 - w5 - b + 10000 z251 >= 1
 c253: - 95 w0 - 62 w1 - 24 w2 - 23 w3 - 14 w4 - w5 - b + 10000 z252 >= 1
 c254: - 93 w0 - 59 w1 - 41 w2 - 30 w3 - 48 w4 - w5 - b + 10000 z253 >= 1
 c255: 84 w0 + 82 w1 + 43 w2 + 32 w3 + 38 w4 + 2 w5 + b + 10000 z254 >= 1
 c256: 87 w0 + 71 w1 + 33 w2 + 20 w3 + 22 w4 + 2 w5 + b + 10000 z255 >= 1
 c257: 86 w0 + 44 w1 + 24 w2 + 15 w3 + 18 w4 + 2 w5 + b + 10000 z256 >= 1
 c258: 86 w0 + 66 w1 + 28 w2 + 24 w3 + 21 w4 + 2 w5 + b + 10000 z257 >= 1
 c259: 88 w0 + 58 w1 + 31 w2 + 17 w3 + 17 w4 + 2 w5 + b + 10000 z258 >= 1
 c260: 90 w0 + 61 w1 + 28 w2 + 29 w3 + 31 w4 + 2 w5 + b + 10000 z259 >= 1
 c261: 88 w0 + 69 w1 + 70 w2 + 24 w3 + 64 w4 + 2 w5 + b + 10000 z260 >= 1
 c262: 93 w0 + 87 w1 + 18 w2 + 17 w3 + 26 w4 + 2 w5 + b + 10000 z261 >= 1
 c263: 98 w0 + 58 w1 + 33 w2 + 21 w3 + 28 w4 + 2 w5 + b + 10000 z262 >= 1
 c264: - 91 w0 - 44 w1 - 18 w2 - 18 w3 - 23 w4 - 2 w5 - b + 10000 z263 >= 1
 c265: - 87 w0 - 75 w1 - 37 w2 - 19 w3 - 70 w4 - 2 w5 - b + 10000 z264 >= 1
 c266: - 94 w0 - 91 w1 - 30 w2 - 26 w3 - 25 w4 - 2 w5 - b + 10000 z265 >= 1
 c267: - 88 w0 - 85 w1 - 14 w2 - 15 w3 - 10 w4 - 2 w5 - b + 10000 z266 >= 1
 c268: - 89 w0 - 109 w1 - 26 w2 - 25 w3 - 27 w4 - 2 w5 - b + 10000 z267 >= 1
 c269: - 87 w0 - 59 w1 - 37 w2 - 27 w3 - 34 w4 - 2 w5 - b + 10000 z268 >= 1
 c270: - 93 w0 - 58 w1 - 20 w2 - 23 w3 - 18 w4 - 2 w5 - b + 10000 z269 >= 1
 c271: - 88 w0 - 57 w1 - 9 w2 - 15 w3 - 16 w4 - 2 w5 - b + 10000 z270 >= 1
 c272: 94 w0 + 65 w1 + 38 w2 + 27 w3 + 17 w4 + 3 w5 + b + 10000 z271 >= 1
 c273: 91 w0 + 71 w1 + 12 w2 + 22 w3 + 11 w4 + 3 w5 + b + 10000 z272 >= 1
 c274: 90 w0 + 55 w1 + 20 w2 + 20 w3 + 16 w4 + 3 w5 + b + 10000 z273 >= 1
 c275: - 91 w0 - 64 w1 - 21 w2 - 17 w3 - 26 w4 - 3 w5 - b + 10000 z274 >= 1
 c276: - 88 w0 - 47 w1 - 35 w2 - 26 w3 - 33 w4 - 3 w5 - b + 10000 z275 >= 1
 c277: - 82 w0 - 72 w1 - 31 w2 - 20 w3 - 84 w4 - 3 w5 - b + 10000 z276 >= 1
 c278: - 85 w0 - 58 w1 - 83 w2 - 49 w3 - 51 w4 - 3 w5 - b + 10000 z277 >= 1
 c279: 91 w0 + 54 w1 + 25 w2 + 22 w3 + 35 w4 + 4 w5 + b + 10000 z278 >= 1
 c280: - 98 w0 - 50 w1 - 27 w2 - 25 w3 - 53 w4 - 4 w5 - b + 10000 z279 >= 1
 c281: - 86 w0 - 62 w1 - 29 w2 - 21 w3 - 26 w4 - 4 w5 - b + 10000 z280 >= 1
 c282: - 89 w0 - 48 w1 - 32 w2 - 22 w3 - 14 w4 - 4 w5 - b + 10000 z281 >= 1
 c283: - 82 w0 - 68 w1 - 20 w2 - 22 w3 - 9 w4 - 4 w5 - b + 10000 z282 >= 1
 c284: - 83 w0 - 70 w1 - 17 w2 - 19 w3 - 23 w4 - 4 w5 - b + 10000 z283 >= 1
 c285: - 96 w0 - 70 w1 - 21 w2 - 26 w3 - 21 w4 - 4 w5 - b + 10000 z284 >= 1
 c286: - 94 w0 - 117 w1 - 77 w2 - 56 w3 - 52 w4 - 4 w5 - b + 10000 z285 >= 1
 c287: - 93 w0 - 45 w1 - 11 w2 - 14 w3 - 21 w4 - 4 w5 - b + 10000 z286 >= 1
 c288: - 93 w0 - 49 w1 - 27 w2 - 21 w3 - 29 w4 - 4 w5 - b + 10000 z287 >= 1
 c289: - 84 w0 - 73 w1 - 46 w2 - 32 w3 - 39 w4 - 4 w5 - b + 10000 z288 >= 1
 c290: - 91 w0 - 63 w1 - 17 w2 - 17 w3 - 46 w4 - 4 w5 - b + 10000 z289 >= 1
 c291: - 90 w0 - 57 w1 - 31 w2 - 18 w3 - 37 w4 - 4 w5 - b + 10000 z290 >= 1
 c292: - 87 w0 - 45 w1 - 19 w2 - 13 w3 - 16 w4 - 4 w5 - b + 10000 z291 >= 1
 c293: - 91 w0 - 68 w1 - 14 w2 - 20 w3 - 19 w4 - 4 w5 - b + 10000 z292 >= 1
 c294: - 86 w0 - 55 w1 - 29 w2 - 35 w3 - 108 w4 - 4 w5 - b + 10000 z293 >= 1
 c295: - 91 w0 - 86 w1 - 52 w2 - 47 w3 - 52 w4 - 4 w5 - b + 10000 z294 >= 1
 c296: - 88 w0 - 46 w1 - 15 w2 - 33 w3 - 55 w4 - 4 w5 - b + 10000 z295 >= 1
 c297: - 85 w0 - 52 w1 - 22 w2 - 23 w3 - 34 w4 - 4 w5 - b + 10000 z296 >= 1
 c298: - 89 w0 - 72 w1 - 33 w2 - 27 w3 - 55 w4 - 4 w5 - b + 10000 z297 >= 1
 c299: - 95 w0 - 59 w1 - 23 w2 - 18 w3 - 19 w4 - 4 w5 - b + 10000 z298 >= 1
 c300: - 94 w0 - 43 w1 - 154 w2 - 82 w3 - 121 w4 - 4 w5 - b + 10000 z299 >= 1
 c301: - 96 w0 - 56 w1 - 38 w2 - 26 w3 - 23 w4 - 5 w5 - b + 10000 z300 >= 1
 c302: - 90 w0 - 52 w1 - 10 w2 - 17 w3 - 12 w4 - 5 w5 - b + 10000 z301 >= 1
 c303: - 94 w0 - 45 w1 - 20 w2 - 16 w3 - 12 w4 - 5 w5 - b + 10000 z302 >= 1
 c304: - 99 w0 - 42 w1 - 14 w2 - 21 w3 - 49 w4 - 5 w5 - b + 10000 z303 >= 1
 c305: - 93 w0 - 102 w1 - 47 w2 - 23 w3 - 37 w4 - 5 w5 - b + 10000 z304 >= 1
 c306: - 94 w0 - 71 w1 - 25 w2 - 26 w3 - 31 w4 - 5 w5 - b + 10000 z305 >= 1
 c307: - 92 w0 - 73 w1 - 33 w2 - 34 w3 - 115 w4 - 5 w5 - b + 10000 z306 >= 1
 c308: 87 w0 + 54 w1 + 41 w2 + 29 w3 + 23 w4 + 6 w5 + b + 10000 z307 >= 1
 c309: 92 w0 + 67 w1 + 15 w2 + 14 w3 + 14 w4 + 6 w5 + b + 10000 z308 >= 1
 c310: 98 w0 + 101 w1 + 31 w2 + 26 w3 + 32 w4 + 6 w5 + b + 10000 z309 >= 1
 c311: 92 w0 + 53 w1 + 51 w2 + 33 w3 + 92 w4 + 6 w5 + b + 10000 z310 >= 1
 c312: 97 w0 + 94 w1 + 43 w2 + 43 w3 + 82 w4 + 6 w5 + b + 10000 z311 >= 1
 c313: 93 w0 + 43 w1 + 11 w2 + 16 w3 + 54 w4 + 6 w5 + b + 10000 z312 >= 1
 c314: 93 w0 + 68 w1 + 24 w2 + 18 w3 + 19 w4 + 6 w5 + b + 10000 z313 >= 1
 c315: 95 w0 + 36 w1 + 38 w2 + 19 w3 + 15 w4 + 6 w5 + b + 10000 z314 >= 1
 c316: 99 w0 + 86 w1 + 58 w2 + 42 w3 + 203 w4 + 6 w5 + b + 10000 z315 >= 1
 c317: 98 w0 + 66 w1 + 103 w2 + 57 w3 + 114 w4 + 6 w5 + b + 10000 z316 >= 1
 c318: 92 w0 + 80 w1 + 10 w2 + 26 w3 + 20 w4 + 6 w5 + b + 10000 z317 >= 1
 c319: - 96 w0 - 74 w1 - 27 w2 - 25 w3 - 43 w4 - 6 w5 - b + 10000 z318 >= 1
 c320: - 95 w0 - 93 w1 - 21 w2 - 27 w3 - 47 w4 - 6 w5 - b + 10000 z319 >= 1
 c321: - 86 w0 - 109 w1 - 16 w2 - 22 w3 - 28 w4 - 6 w5 - b + 10000 z320 >= 1
 c322: - 91 w0 - 46 w1 - 30 w2 - 24 w3 - 39 w4 - 7 w5 - b + 10000 z321 >= 1
 c323: - 102 w0 - 82 w1 - 34 w2 - 78 w3 - 203 w4 - 7 w5 - b + 10000 z322 >= 1
 c324: - 85 w0 - 50 w1 - 12 w2 - 18 w3 - 14 w4 - 7 w5 - b + 10000 z323 >= 1
 c325: 91 w0 + 57 w1 + 33 w2 + 23 w3 + 12 w4 + 8 w5 + b + 10000 z324 >= 1
 c326: 91 w0 + 52 w1 + 76 w2 + 32 w3 + 24 w4 + 8 w5 + b + 10000 z325 >= 1
 c327: 93 w0 + 70 w1 + 46 w2 + 30 w3 + 33 w4 + 8 w5 + b + 10000 z326 >= 1
 c328: 87 w0 + 55 w1 + 36 w2 + 19 w3 + 25 w4 + 8 w5 + b + 10000 z327 >= 1
 c329: 98 w0 + 123 w1 + 28 w2 + 24 w3 + 31 w4 + 8 w5 + b + 10000 z328 >= 1
 c330: - 82 w0 - 55 w1 - 18 w2 - 23 w3 - 44 w4 - 8 w5 - b + 10000 z329 >= 1
 c331: - 95 w0 - 73 w1 - 20 w2 - 25 w3 - 225 w4 - 8 w5 - b + 10000 z330 >= 1
 c332: - 97 w0 - 80 w1 - 17 w2 - 20 w3 - 53 w4 - 8 w5 - b + 10000 z331 >= 1
 c333: - 100 w0 - 83 w1 - 25 w2 - 24 w3 - 28 w4 - 8 w5 - b + 10000 z332 >= 1
 c334: - 88 w0 - 91 w1 - 56 w2 - 35 w3 - 126 w4 - 9 w5 - b + 10000 z333 >= 1
 c335: 91 w0 + 138 w1 + 45 w2 + 21 w3 + 48 w4 + 10 w5 + b + 10000 z334 >= 1
 c336: 92 w0 + 41 w1 + 37 w2 + 22 w3 + 37 w4 + 10 w5 + b + 10000 z335 >= 1
 c337: - 86 w0 - 123 w1 - 20 w2 - 25 w3 - 23 w4 - 10 w5 - b + 10000 z336 >= 1
 c338: - 91 w0 - 93 w1 - 35 w2 - 34 w3 - 37 w4 - 10 w5 - b + 10000 z337 >= 1
 c339: - 87 w0 - 87 w1 - 15 w2 - 23 w3 - 11 w4 - 10 w5 - b + 10000 z338 >= 1
 c340: - 87 w0 - 56 w1 - 52 w2 - 43 w3 - 55 w4 - 10 w5 - b + 10000 z339 >= 1
 c341: 99 w0 + 75 w1 + 26 w2 + 24 w3 + 41 w4 + 12 w5 + b + 10000 z340 >= 1
 c342: - 96 w0 - 69 w1 - 53 w2 - 43 w3 - 203 w4 - 12 w5 - b + 10000 z341 >= 1
 c343: 98 w0 + 77 w1 + 55 w2 + 35 w3 + 89 w4 + 15 w5 + b + 10000 z342 >= 1
 c344: 91 w0 + 68 w1 + 27 w2 + 26 w3 + 14 w4 + 16 w5 + b + 10000 z343 >= 1
 c345: 98 w0 + 99 w1 + 57 w2 + 45 w3 + 65 w4 + 20 w5 + b + 10000 z344 >= 1
Bounds
-1 <= b <= 1
 0 <= z0 <= 1
 0 <= z1 <= 1
 0 <= z2 <= 1
 0 <= z3 <= 1
 0 <= z4 <= 1
 0 <= z5 <= 1
 0 <= z6 <= 1
 0 <= z7 <= 1
 0 <= z8 <= 1
 0 <= z9 <= 1
 0 <= z10 <= 1
 0 <= z11 <= 1
 0 <= z12 <= 1
 0 <= z13 <= 1
 0 <= z14 <= 1
 0 <= z15 <= 1
 0 <= z16 <= 1
 0 <= z17 <= 1
 0 <= z18 <= 1
 0 <= z19 <= 1
 0 <= z20 <= 1
 0 <= z21 <= 1
 0 <= z22 <= 1
 0 <= z23 <= 1
 0 <= z24 <= 1
 0 <= z25 <= 1
 0 <= z26 <= 1
 0 <= z27 <= 1
 0 <= z28 <= 1
 0 <= z29 <= 1
 0 <= z30 <= 1
 0 <= z31 <= 1
 0 <= z32 <= 1
 0 <= z33 <= 1
 0 <= z34 <= 1
 0 <= z35 <= 1
 0 <= z36 <= 1
 0 <= z37 <= 1
 0 <= z38 <= 1
 0 <= z39 <= 1
 0 <= z40 <= 1
 0 <= z41 <= 1
 0 <= z42 <= 1
 0 <= z43 <= 1
 0 <= z44 <= 1
 0 <= z45 <= 1
 0 <= z46 <= 1
 0 <= z47 <= 1
 0 <= z48 <= 1
 0 <= z49 <= 1
 0 <= z50 <= 1
 0 <= z51 <= 1
 0 <= z52 <= 1
 0 <= z53 <= 1
 0 <= z54 <= 1
 0 <= z55 <= 1
 0 <= z56 <= 1
 0 <= z57 <= 1
 0 <= z58 <= 1
 0 <= z59 <= 1
 0 <= z60 <= 1
 0 <= z61 <= 1
 0 <= z62 <= 1
 0 <= z63 <= 1
 0 <= z64 <= 1
 0 <= z65 <= 1
 0 <= z66 <= 1
 0 <= z67 <= 1
 0 <= z68 <= 1
 0 <= z69 <= 1
 0 <= z70 <= 1
 0 <= z71 <= 1
 0 <= z72 <= 1
 0 <= z73 <= 1
 0 <= z74 <= 1
 0 <= z75 <= 1
 0 <= z76 <= 1
 0 <= z77 <= 1
 0 <= z78 <= 1
 0 <= z79 <= 1
 0 <= z80 <= 1
 0 <= z81 <= 1
 0 <= z82 <= 1
 0 <= z83 <= 1
 0 <= z84 <= 1
 0 <= z85 <= 1
 0 <= z86 <= 1
 0 <= z87 <= 1
 0 <= z88 <= 1
 0 <= z89 <= 1
 0 <= z90 <= 1
 0 <= z91 <= 1
 0 <= z92 <= 1
 0 <= z93 <= 1
 0 <= z94 <= 1
 0 <= z95 <= 1
 0 <= z96 <= 1
 0 <= z97 <= 1
 0 <= z98 <= 1
 0 <= z99 <= 1
 0 <= z100 <= 1
 0 <= z101 <= 1
 0 <= z102 <= 1
 0 <= z103 <= 1
 0 <= z104 <= 1
 0 <= z105 <= 1
 0 <= z106 <= 1
 0 <= z107 <= 1
 0 <= z108 <= 1
 0 <= z109 <= 1
 0 <= z110 <= 1
 0 <= z111 <= 1
 0 <= z112 <= 1
 0 <= z113 <= 1
 0 <= z114 <= 1
 0 <= z115 <= 1
 0 <= z116 <= 1
 0 <= z117 <= 1
 0 <= z118 <= 1
 0 <= z119 <= 1
 0 <= z120 <= 1
 0 <= z121 <= 1
 0 <= z122 <= 1
 0 <= z123 <= 1
 0 <= z124 <= 1
 0 <= z125 <= 1
 0 <= z126 <= 1
 0 <= z127 <= 1
 0 <= z128 <= 1
 0 <= z129 <= 1
 0 <= z130 <= 1
 0 <= z131 <= 1
 0 <= z132 <= 1
 0 <= z133 <= 1
 0 <= z134 <= 1
 0 <= z135 <= 1
 0 <= z136 <= 1
 0 <= z137 <= 1
 0 <= z138 <= 1
 0 <= z139 <= 1
 0 <= z140 <= 1
 0 <= z141 <= 1
 0 <= z142 <= 1
 0 <= z143 <= 1
 0 <= z144 <= 1
 0 <= z145 <= 1
 0 <= z146 <= 1
 0 <= z147 <= 1
 0 <= z148 <= 1
 0 <= z149 <= 1
 0 <= z150 <= 1
 0 <= z151 <= 1
 0 <= z152 <= 1
 0 <= z153 <= 1
 0 <= z154 <= 1
 0 <= z155 <= 1
 0 <= z156 <= 1
 0 <= z157 <= 1
 0 <= z158 <= 1
 0 <= z159 <= 1
 0 <= z160 <= 1
 0 <= z161 <= 1
 0 <= z162 <= 1
 0 <= z163 <= 1
 0 <= z164 <= 1
 0 <= z165 <= 1
 0 <= z166 <= 1
 0 <= z167 <= 1
 0 <= z168 <= 1
 0 <= z169 <= 1
 0 <= z170 <= 1
 0 <= z171 <= 1
 0 <= z172 <= 1
 0 <= z173 <= 1
 0 <= z174 <= 1
 0 <= z175 <= 1
 0 <= z176 <= 1
 0 <= z177 <= 1
 0 <= z178 <= 1
 0 <= z179 <= 1
 0 <= z180 <= 1
 0 <= z181 <= 1
 0 <= z182 <= 1
 0 <= z183 <= 1
 0 <= z184 <= 1
 0 <= z185 <= 1
 0 <= z186 <= 1
 0 <= z187 <= 1
 0 <= z188 <= 1
 0 <= z189 <= 1
 0 <= z190 <= 1
 0 <= z191 <= 1
 0 <= z192 <= 1
 0 <= z193 <= 1
 0 <= z194 <= 1
 0 <= z195 <= 1
 0 <= z196 <= 1
 0 <= z197 <= 1
 0 <= z198 <= 1
 0 <= z199 <= 1
 0 <= z200 <= 1
 0 <= z201 <= 1
 0 <= z202 <= 1
 0 <= z203 <= 1
 0 <= z204 <= 1
 0 <= z205 <= 1
 0 <= z206 <= 1
 0 <= z207 <= 1
 0 <= z208 <= 1
 0 <= z209 <= 1
 0 <= z210 <= 1
 0 <= z211 <= 1
 0 <= z212 <= 1
 0 <= z213 <= 1
 0 <= z214 <= 1
 0 <= z215 <= 1
 0 <= z216 <= 1
 0 <= z217 <= 1
 0 <= z218 <= 1
 0 <= z219 <= 1
 0 <= z220 <= 1
 0 <= z221 <= 1
 0 <= z222 <= 1
 0 <= z223 <= 1
 0 <= z224 <= 1
 0 <= z225 <= 1
 0 <= z226 <= 1
 0 <= z227 <= 1
 0 <= z228 <= 1
 0 <= z229 <= 1
 0 <= z230 <= 1
 0 <= z231 <= 1
 0 <= z232 <= 1
 0 <= z233 <= 1
 0 <= z234 <= 1
 0 <= z235 <= 1
 0 <= z236 <= 1
 0 <= z237 <= 1
 0 <= z238 <= 1
 0 <= z239 <= 1
 0 <= z240 <= 1
 0 <= z241 <= 1
 0 <= z242 <= 1
 0 <= z243 <= 1
 0 <= z244 <= 1
 0 <= z245 <= 1
 0 <= z246 <= 1
 0 <= z247 <= 1
 0 <= z248 <= 1
 0 <= z249 <= 1
 0 <= z250 <= 1
 0 <= z251 <= 1
 0 <= z252 <= 1
 0 <= z253 <= 1
 0 <= z254 <= 1
 0 <= z255 <= 1
 0 <= z256 <= 1
 0 <= z257 <= 1
 0 <= z258 <= 1
 0 <= z259 <= 1
 0 <= z260 <= 1
 0 <= z261 <= 1
 0 <= z262 <= 1
 0 <= z263 <= 1
 0 <= z264 <= 1
 0 <= z265 <= 1
 0 <= z266 <= 1
 0 <= z267 <= 1
 0 <= z268 <= 1
 0 <= z269 <= 1
 0 <= z270 <= 1
 0 <= z271 <= 1
 0 <= z272 <= 1
 0 <= z273 <= 1
 0 <= z274 <= 1
 0 <= z275 <= 1
 0 <= z276 <= 1
 0 <= z277 <= 1
 0 <= z278 <= 1
 0 <= z279 <= 1
 0 <= z280 <= 1
 0 <= z281 <= 1
 0 <= z282 <= 1
 0 <= z283 <= 1
 0 <= z284 <= 1
 0 <= z285 <= 1
 0 <= z286 <= 1
 0 <= z287 <= 1
 0 <= z288 <= 1
 0 <= z289 <= 1
 0 <= z290 <= 1
 0 <= z291 <= 1
 0 <= z292 <= 1
 0 <= z293 <= 1
 0 <= z294 <= 1
 0 <= z295 <= 1
 0 <= z296 <= 1
 0 <= z297 <= 1
 0 <= z298 <= 1
 0 <= z299 <= 1
 0 <= z300 <= 1
 0 <= z301 <= 1
 0 <= z302 <= 1
 0 <= z303 <= 1
 0 <= z304 <= 1
 0 <= z305 <= 1
 0 <= z306 <= 1
 0 <= z307 <= 1
 0 <= z308 <= 1
 0 <= z309 <= 1
 0 <= z310 <= 1
 0 <= z311 <= 1
 0 <= z312 <= 1
 0 <= z313 <= 1
 0 <= z314 <= 1
 0 <= z315 <= 1
 0 <= z316 <= 1
 0 <= z317 <= 1
 0 <= z318 <= 1
 0 <= z319 <= 1
 0 <= z320 <= 1
 0 <= z321 <= 1
 0 <= z322 <= 1
 0 <= z323 <= 1
 0 <= z324 <= 1
 0 <= z325 <= 1
 0 <= z326 <= 1
 0 <= z327 <= 1
 0 <= z328 <= 1
 0 <= z329 <= 1
 0 <= z330 <= 1
 0 <= z331 <= 1
 0 <= z332 <= 1
 0 <= z333 <= 1
 0 <= z334 <= 1
 0 <= z335 <= 1
 0 <= z336 <= 1
 0 <= z337 <= 1
 0 <= z338 <= 1
 0 <= z339 <= 1
 0 <= z340 <= 1
 0 <= z341 <= 1
 0 <= z342 <= 1
 0 <= z343 <= 1
 0 <= z344 <= 1
Binaries
 z0  z1  z2  z3  z4  z5  z6  z7  z8  z9  z10  z11  z12  z13  z14  z15  z16 
 z17  z18  z19  z20  z21  z22  z23  z24  z25  z26  z27  z28  z29  z30  z31 
 z32  z33  z34  z35  z36  z37  z38  z39  z40  z41  z42  z43  z44  z45  z46 
 z47  z48  z49  z50  z51  z52  z53  z54  z55  z56  z57  z58  z59  z60  z61 
 z62  z63  z64  z65  z66  z67  z68  z69  z70  z71  z72  z73  z74  z75  z76 
 z77  z78  z79  z80  z81  z82  z83  z84  z85  z86  z87  z88  z89  z90  z91 
 z92  z93  z94  z95  z96  z97  z98  z99  z100  z101  z102  z103  z104  z105 
 z106  z107  z108  z109  z110  z111  z112  z113  z114  z115  z116  z117  z118 
 z119  z120  z121  z122  z123  z124  z125  z126  z127  z128  z129  z130  z131 
 z132  z133  z134  z135  z136  z137  z138  z139  z140  z141  z142  z143  z144 
 z145  z146  z147  z148  z149  z150  z151  z152  z153  z154  z155  z156  z157 
 z158  z159  z160  z161  z162  z163  z164  z165  z166  z167  z168  z169  z170 
 z171  z172  z173  z174  z175  z176  z177  z178  z179  z180  z181  z182  z183 
 z184  z185  z186  z187  z188  z189  z190  z191  z192  z193  z194  z195  z196 
 z197  z198  z199  z200  z201  z202  z203  z204  z205  z206  z207  z208  z209 
 z210  z211  z212  z213  z214  z215  z216  z217  z218  z219  z220  z221  z222 
 z223  z224  z225  z226  z227  z228  z229  z230  z231  z232  z233  z234  z235 
 z236  z237  z238  z239  z240  z241  z242  z243  z244  z245  z246  z247  z248 
 z249  z250  z251  z252  z253  z254  z255  z256  z257  z258  z259  z260  z261 
 z262  z263  z264  z265  z266  z267  z268  z269  z270  z271  z272  z273  z274 
 z275  z276  z277  z278  z279  z280  z281  z282  z283  z284  z285  z286  z287 
 z288  z289  z290  z291  z292  z293  z294  z295  z296  z297  z298  z299  z300 
 z301  z302  z303  z304  z305  z306  z307  z308  z309  z310  z311  z312  z313 
 z314  z315  z316  z317  z318  z319  z320  z321  z322  z323  z324  z325  z326 
 z327  z328  z329  z330  z331  z332  z333  z334  z335  z336  z337  z338  z339 
 z340  z341  z342  z343  z344 
End
